%%% static parameters %%%
timespan = 1;
Fact = [2];
Distr1 = [5];
Distr2 = [10];
Clients_N = [120];
Demand_W = [15];
Lt0 = [4];
Lt1 = [4];
SS_ = [0.85];
DS_D = [5];
K = [200];
MA = [500];
%%% dynamic parameters %%%
lost_ratio_sales_ret_th = 0.953489948856791;
lost_ratio_sales_ret_w = 79;
lost_ratio_sales_dis_th = 0.5645080414724257;
lost_ratio_sales_dis_w = 16;
lost_ratio_sales_fac_th = 0.9443969534534874;
lost_ratio_sales_fac_w = 63;
stock_customer_MA_mean_relative_th = 0.9193142631488015;
stock_customer_MA_mean_relative_w = 13;
stock_distributor_MA_mean_relative_th = 0.1061453197612946;
stock_distributor_MA_mean_relative_w = 65;
stock_retailer_MA_mean_relative_th = 0.9816054177065932;
stock_retailer_MA_mean_relative_w = 77;
stock_factory_MA_mean_relative_th = 0.5170860823849524;
stock_factory_MA_mean_relative_w = 78;
